sing20150328.12
TTAA  78121 48698
99006 29657 05510 00067 29650 03012 92756 22421 03519
85489 18624 03512 70134 12677 07017 50587 04560 08505
40759 14348 23004 30971 29350 13006 25099 39358 16018
20248 51547 23511 15427 68139 19018 10661 83526 25503
88999
77999=
TTCC  7812/ 48698=
TTDD  7812/ 48698
11969 84740 22935 85727 33923 85119 44892 84739 55883
84935
21212 11985 20503 22966 19008 33946 19508 44927 13008
55907 10015 66891 10518 77883 10519=
